clingo version 5.4.0
Reading from tempSRTISolver.lp ...
Solving...
Answer: 1
matched(3,2) matched(2,3) matched(1,4) matched(8,5) matched(7,6) matched(6,7) matched(5,8) matched(4,1) matched(9,10) matched(12,11) matched(11,12) matched(10,9) matched(15,14) matched(14,15) matched(13,16) matched(20,17) matched(19,18) matched(18,19) matched(17,20) matched(16,13) matched(24,22) matched(25,23) matched(22,24) matched(23,25) matched(27,26) matched(26,27) matched(21,28) matched(28,21) matched(31,30) matched(30,31) matched(29,32) matched(32,29) matched(36,34) matched(37,35) matched(34,36) matched(35,37) matched(39,38) matched(38,39) matched(33,40) matched(40,33) matched(43,42) matched(42,43) matched(45,44) matched(44,45) matched(47,46) matched(46,47) matched(41,48) matched(48,41) matched(49,50) matched(52,51) matched(51,52) matched(50,49) matched(58,54) matched(59,55) matched(53,56) matched(60,57) matched(54,58) matched(55,59) matched(57,60) matched(56,53)
Optimization: 676
Answer: 2
matched(3,2) matched(2,3) matched(6,4) matched(8,5) matched(4,6) matched(1,7) matched(5,8) matched(7,1) matched(9,10) matched(12,11) matched(11,12) matched(10,9) matched(15,14) matched(14,15) matched(17,16) matched(16,17) matched(19,18) matched(18,19) matched(13,20) matched(20,13) matched(24,22) matched(25,23) matched(22,24) matched(23,25) matched(27,26) matched(26,27) matched(21,28) matched(28,21) matched(29,30) matched(32,31) matched(31,32) matched(30,29) matched(36,34) matched(37,35) matched(34,36) matched(35,37) matched(39,38) matched(38,39) matched(33,40) matched(40,33) matched(46,42) matched(47,43) matched(45,44) matched(44,45) matched(42,46) matched(43,47) matched(41,48) matched(48,41) matched(49,50) matched(52,51) matched(51,52) matched(50,49) matched(58,54) matched(59,55) matched(57,56) matched(56,57) matched(54,58) matched(55,59) matched(53,60) matched(60,53)
Optimization: 672
Answer: 3
matched(6,2) matched(7,3) matched(1,4) matched(8,5) matched(2,6) matched(3,7) matched(5,8) matched(4,1) matched(9,10) matched(12,11) matched(11,12) matched(10,9) matched(15,14) matched(14,15) matched(17,16) matched(16,17) matched(19,18) matched(18,19) matched(13,20) matched(20,13) matched(24,22) matched(25,23) matched(22,24) matched(23,25) matched(27,26) matched(26,27) matched(21,28) matched(28,21) matched(29,30) matched(32,31) matched(31,32) matched(30,29) matched(35,34) matched(34,35) matched(37,36) matched(36,37) matched(39,38) matched(38,39) matched(33,40) matched(40,33) matched(46,42) matched(47,43) matched(45,44) matched(44,45) matched(42,46) matched(43,47) matched(41,48) matched(48,41) matched(49,50) matched(52,51) matched(51,52) matched(50,49) matched(58,54) matched(59,55) matched(57,56) matched(56,57) matched(54,58) matched(55,59) matched(53,60) matched(60,53)
Optimization: 670
Answer: 4
matched(3,2) matched(2,3) matched(1,4) matched(8,5) matched(7,6) matched(6,7) matched(5,8) matched(4,1) matched(9,10) matched(12,11) matched(11,12) matched(10,9) matched(15,14) matched(14,15) matched(17,16) matched(16,17) matched(19,18) matched(18,19) matched(13,20) matched(20,13) matched(24,22) matched(25,23) matched(22,24) matched(23,25) matched(27,26) matched(26,27) matched(21,28) matched(28,21) matched(29,30) matched(32,31) matched(31,32) matched(30,29) matched(35,34) matched(34,35) matched(37,36) matched(36,37) matched(39,38) matched(38,39) matched(33,40) matched(40,33) matched(46,42) matched(47,43) matched(45,44) matched(44,45) matched(42,46) matched(43,47) matched(41,48) matched(48,41) matched(49,50) matched(52,51) matched(51,52) matched(50,49) matched(58,54) matched(59,55) matched(57,56) matched(56,57) matched(54,58) matched(55,59) matched(53,60) matched(60,53)
Optimization: 669
Answer: 5
matched(6,2) matched(7,3) matched(1,4) matched(8,5) matched(2,6) matched(3,7) matched(5,8) matched(4,1) matched(9,10) matched(12,11) matched(11,12) matched(10,9) matched(15,14) matched(14,15) matched(17,16) matched(16,17) matched(19,18) matched(18,19) matched(13,20) matched(20,13) matched(24,22) matched(25,23) matched(22,24) matched(23,25) matched(27,26) matched(26,27) matched(21,28) matched(28,21) matched(29,30) matched(32,31) matched(31,32) matched(30,29) matched(36,34) matched(37,35) matched(34,36) matched(35,37) matched(39,38) matched(38,39) matched(33,40) matched(40,33) matched(46,42) matched(47,43) matched(45,44) matched(44,45) matched(42,46) matched(43,47) matched(41,48) matched(48,41) matched(49,50) matched(52,51) matched(51,52) matched(50,49) matched(58,54) matched(59,55) matched(57,56) matched(56,57) matched(54,58) matched(55,59) matched(53,60) matched(60,53)
Optimization: 667
Answer: 6
matched(3,2) matched(2,3) matched(1,4) matched(8,5) matched(7,6) matched(6,7) matched(5,8) matched(4,1) matched(9,10) matched(12,11) matched(11,12) matched(10,9) matched(15,14) matched(14,15) matched(17,16) matched(16,17) matched(19,18) matched(18,19) matched(13,20) matched(20,13) matched(24,22) matched(25,23) matched(22,24) matched(23,25) matched(27,26) matched(26,27) matched(21,28) matched(28,21) matched(29,30) matched(32,31) matched(31,32) matched(30,29) matched(36,34) matched(37,35) matched(34,36) matched(35,37) matched(39,38) matched(38,39) matched(33,40) matched(40,33) matched(46,42) matched(47,43) matched(45,44) matched(44,45) matched(42,46) matched(43,47) matched(41,48) matched(48,41) matched(49,50) matched(52,51) matched(51,52) matched(50,49) matched(58,54) matched(59,55) matched(57,56) matched(56,57) matched(54,58) matched(55,59) matched(53,60) matched(60,53)
Optimization: 666
Answer: 7
matched(6,2) matched(7,3) matched(1,4) matched(8,5) matched(2,6) matched(3,7) matched(5,8) matched(4,1) matched(9,10) matched(12,11) matched(11,12) matched(10,9) matched(15,14) matched(14,15) matched(17,16) matched(16,17) matched(19,18) matched(18,19) matched(13,20) matched(20,13) matched(24,22) matched(25,23) matched(22,24) matched(23,25) matched(27,26) matched(26,27) matched(21,28) matched(28,21) matched(29,30) matched(32,31) matched(31,32) matched(30,29) matched(36,34) matched(37,35) matched(34,36) matched(35,37) matched(39,38) matched(38,39) matched(33,40) matched(40,33) matched(46,42) matched(47,43) matched(45,44) matched(44,45) matched(42,46) matched(43,47) matched(41,48) matched(48,41) matched(49,50) matched(52,51) matched(51,52) matched(50,49) matched(56,54) matched(57,55) matched(54,56) matched(55,57) matched(59,58) matched(58,59) matched(53,60) matched(60,53)
Optimization: 665
Answer: 8
matched(3,2) matched(2,3) matched(1,4) matched(8,5) matched(7,6) matched(6,7) matched(5,8) matched(4,1) matched(9,10) matched(12,11) matched(11,12) matched(10,9) matched(15,14) matched(14,15) matched(17,16) matched(16,17) matched(19,18) matched(18,19) matched(13,20) matched(20,13) matched(24,22) matched(25,23) matched(22,24) matched(23,25) matched(27,26) matched(26,27) matched(21,28) matched(28,21) matched(29,30) matched(32,31) matched(31,32) matched(30,29) matched(36,34) matched(37,35) matched(34,36) matched(35,37) matched(39,38) matched(38,39) matched(33,40) matched(40,33) matched(46,42) matched(47,43) matched(45,44) matched(44,45) matched(42,46) matched(43,47) matched(41,48) matched(48,41) matched(49,50) matched(52,51) matched(51,52) matched(50,49) matched(56,54) matched(57,55) matched(54,56) matched(55,57) matched(59,58) matched(58,59) matched(53,60) matched(60,53)
Optimization: 664
Answer: 9
matched(3,2) matched(2,3) matched(6,4) matched(8,5) matched(4,6) matched(1,7) matched(5,8) matched(7,1) matched(9,10) matched(12,11) matched(11,12) matched(10,9) matched(16,14) matched(17,15) matched(14,16) matched(15,17) matched(19,18) matched(18,19) matched(13,20) matched(20,13) matched(24,22) matched(25,23) matched(22,24) matched(23,25) matched(27,26) matched(26,27) matched(21,28) matched(28,21) matched(29,30) matched(32,31) matched(31,32) matched(30,29) matched(36,34) matched(37,35) matched(34,36) matched(35,37) matched(39,38) matched(38,39) matched(33,40) matched(40,33) matched(44,42) matched(45,43) matched(42,44) matched(43,45) matched(47,46) matched(46,47) matched(41,48) matched(48,41) matched(49,50) matched(52,51) matched(51,52) matched(50,49) matched(58,54) matched(59,55) matched(57,56) matched(56,57) matched(54,58) matched(55,59) matched(53,60) matched(60,53)
Optimization: 658
Answer: 10
matched(3,2) matched(2,3) matched(6,4) matched(8,5) matched(4,6) matched(1,7) matched(5,8) matched(7,1) matched(9,10) matched(12,11) matched(11,12) matched(10,9) matched(16,14) matched(17,15) matched(14,16) matched(15,17) matched(19,18) matched(18,19) matched(13,20) matched(20,13) matched(24,22) matched(25,23) matched(22,24) matched(23,25) matched(27,26) matched(26,27) matched(21,28) matched(28,21) matched(29,30) matched(32,31) matched(31,32) matched(30,29) matched(36,34) matched(37,35) matched(34,36) matched(35,37) matched(39,38) matched(38,39) matched(33,40) matched(40,33) matched(44,42) matched(45,43) matched(42,44) matched(43,45) matched(47,46) matched(46,47) matched(41,48) matched(48,41) matched(49,50) matched(52,51) matched(51,52) matched(50,49) matched(56,54) matched(57,55) matched(54,56) matched(55,57) matched(59,58) matched(58,59) matched(53,60) matched(60,53)
Optimization: 656
Answer: 11
matched(6,2) matched(7,3) matched(1,4) matched(8,5) matched(2,6) matched(3,7) matched(5,8) matched(4,1) matched(9,10) matched(12,11) matched(11,12) matched(10,9) matched(16,14) matched(17,15) matched(14,16) matched(15,17) matched(19,18) matched(18,19) matched(13,20) matched(20,13) matched(24,22) matched(25,23) matched(22,24) matched(23,25) matched(27,26) matched(26,27) matched(21,28) matched(28,21) matched(29,30) matched(32,31) matched(31,32) matched(30,29) matched(36,34) matched(37,35) matched(34,36) matched(35,37) matched(39,38) matched(38,39) matched(33,40) matched(40,33) matched(44,42) matched(45,43) matched(42,44) matched(43,45) matched(47,46) matched(46,47) matched(41,48) matched(48,41) matched(49,50) matched(52,51) matched(51,52) matched(50,49) matched(58,54) matched(59,55) matched(57,56) matched(56,57) matched(54,58) matched(55,59) matched(53,60) matched(60,53)
Optimization: 653
Answer: 12
matched(3,2) matched(2,3) matched(1,4) matched(8,5) matched(7,6) matched(6,7) matched(5,8) matched(4,1) matched(9,10) matched(12,11) matched(11,12) matched(10,9) matched(16,14) matched(17,15) matched(14,16) matched(15,17) matched(19,18) matched(18,19) matched(13,20) matched(20,13) matched(24,22) matched(25,23) matched(22,24) matched(23,25) matched(27,26) matched(26,27) matched(21,28) matched(28,21) matched(29,30) matched(32,31) matched(31,32) matched(30,29) matched(36,34) matched(37,35) matched(34,36) matched(35,37) matched(39,38) matched(38,39) matched(33,40) matched(40,33) matched(44,42) matched(45,43) matched(42,44) matched(43,45) matched(47,46) matched(46,47) matched(41,48) matched(48,41) matched(49,50) matched(52,51) matched(51,52) matched(50,49) matched(58,54) matched(59,55) matched(57,56) matched(56,57) matched(54,58) matched(55,59) matched(53,60) matched(60,53)
Optimization: 652
Answer: 13
matched(6,2) matched(7,3) matched(1,4) matched(8,5) matched(2,6) matched(3,7) matched(5,8) matched(4,1) matched(9,10) matched(12,11) matched(11,12) matched(10,9) matched(16,14) matched(17,15) matched(14,16) matched(15,17) matched(19,18) matched(18,19) matched(13,20) matched(20,13) matched(24,22) matched(25,23) matched(22,24) matched(23,25) matched(27,26) matched(26,27) matched(21,28) matched(28,21) matched(29,30) matched(32,31) matched(31,32) matched(30,29) matched(36,34) matched(37,35) matched(34,36) matched(35,37) matched(39,38) matched(38,39) matched(33,40) matched(40,33) matched(44,42) matched(45,43) matched(42,44) matched(43,45) matched(47,46) matched(46,47) matched(41,48) matched(48,41) matched(49,50) matched(52,51) matched(51,52) matched(50,49) matched(56,54) matched(57,55) matched(54,56) matched(55,57) matched(59,58) matched(58,59) matched(53,60) matched(60,53)
Optimization: 651
Answer: 14
matched(3,2) matched(2,3) matched(1,4) matched(8,5) matched(7,6) matched(6,7) matched(5,8) matched(4,1) matched(9,10) matched(12,11) matched(11,12) matched(10,9) matched(16,14) matched(17,15) matched(14,16) matched(15,17) matched(19,18) matched(18,19) matched(13,20) matched(20,13) matched(24,22) matched(25,23) matched(22,24) matched(23,25) matched(27,26) matched(26,27) matched(21,28) matched(28,21) matched(29,30) matched(32,31) matched(31,32) matched(30,29) matched(36,34) matched(37,35) matched(34,36) matched(35,37) matched(39,38) matched(38,39) matched(33,40) matched(40,33) matched(44,42) matched(45,43) matched(42,44) matched(43,45) matched(47,46) matched(46,47) matched(41,48) matched(48,41) matched(49,50) matched(52,51) matched(51,52) matched(50,49) matched(56,54) matched(57,55) matched(54,56) matched(55,57) matched(59,58) matched(58,59) matched(53,60) matched(60,53)
Optimization: 650
Answer: 15
matched(3,2) matched(2,3) matched(1,4) matched(8,5) matched(7,6) matched(6,7) matched(5,8) matched(4,1) matched(9,10) matched(12,11) matched(11,12) matched(10,9) matched(15,14) matched(14,15) matched(17,16) matched(16,17) matched(19,18) matched(18,19) matched(13,20) matched(20,13) matched(24,22) matched(25,23) matched(22,24) matched(23,25) matched(27,26) matched(26,27) matched(21,28) matched(28,21) matched(29,30) matched(32,31) matched(31,32) matched(30,29) matched(36,34) matched(37,35) matched(34,36) matched(35,37) matched(39,38) matched(38,39) matched(33,40) matched(40,33) matched(44,42) matched(45,43) matched(42,44) matched(43,45) matched(47,46) matched(46,47) matched(41,48) matched(48,41) matched(49,50) matched(52,51) matched(51,52) matched(50,49) matched(58,54) matched(59,55) matched(57,56) matched(56,57) matched(54,58) matched(55,59) matched(53,60) matched(60,53)
Optimization: 649
Answer: 16
matched(6,2) matched(7,3) matched(1,4) matched(8,5) matched(2,6) matched(3,7) matched(5,8) matched(4,1) matched(9,10) matched(12,11) matched(11,12) matched(10,9) matched(15,14) matched(14,15) matched(17,16) matched(16,17) matched(19,18) matched(18,19) matched(13,20) matched(20,13) matched(24,22) matched(25,23) matched(22,24) matched(23,25) matched(27,26) matched(26,27) matched(21,28) matched(28,21) matched(29,30) matched(32,31) matched(31,32) matched(30,29) matched(36,34) matched(37,35) matched(34,36) matched(35,37) matched(39,38) matched(38,39) matched(33,40) matched(40,33) matched(44,42) matched(45,43) matched(42,44) matched(43,45) matched(47,46) matched(46,47) matched(41,48) matched(48,41) matched(49,50) matched(52,51) matched(51,52) matched(50,49) matched(56,54) matched(57,55) matched(54,56) matched(55,57) matched(59,58) matched(58,59) matched(53,60) matched(60,53)
Optimization: 648
Answer: 17
matched(3,2) matched(2,3) matched(1,4) matched(8,5) matched(7,6) matched(6,7) matched(5,8) matched(4,1) matched(9,10) matched(12,11) matched(11,12) matched(10,9) matched(15,14) matched(14,15) matched(17,16) matched(16,17) matched(19,18) matched(18,19) matched(13,20) matched(20,13) matched(24,22) matched(25,23) matched(22,24) matched(23,25) matched(27,26) matched(26,27) matched(21,28) matched(28,21) matched(29,30) matched(32,31) matched(31,32) matched(30,29) matched(36,34) matched(37,35) matched(34,36) matched(35,37) matched(39,38) matched(38,39) matched(33,40) matched(40,33) matched(44,42) matched(45,43) matched(42,44) matched(43,45) matched(47,46) matched(46,47) matched(41,48) matched(48,41) matched(49,50) matched(52,51) matched(51,52) matched(50,49) matched(56,54) matched(57,55) matched(54,56) matched(55,57) matched(59,58) matched(58,59) matched(53,60) matched(60,53)
Optimization: 647
Answer: 18
matched(3,2) matched(2,3) matched(1,4) matched(8,5) matched(7,6) matched(6,7) matched(5,8) matched(4,1) matched(11,10) matched(10,11) matched(9,12) matched(12,9) matched(16,14) matched(17,15) matched(14,16) matched(15,17) matched(19,18) matched(18,19) matched(13,20) matched(20,13) matched(24,22) matched(25,23) matched(22,24) matched(23,25) matched(27,26) matched(26,27) matched(21,28) matched(28,21) matched(31,30) matched(30,31) matched(29,32) matched(32,29) matched(36,34) matched(37,35) matched(34,36) matched(35,37) matched(39,38) matched(38,39) matched(33,40) matched(40,33) matched(44,42) matched(45,43) matched(42,44) matched(43,45) matched(47,46) matched(46,47) matched(41,48) matched(48,41) matched(51,50) matched(50,51) matched(49,52) matched(52,49) matched(56,54) matched(57,55) matched(54,56) matched(55,57) matched(59,58) matched(58,59) matched(53,60) matched(60,53)
Optimization: 646
Answer: 19
matched(3,2) matched(2,3) matched(1,4) matched(8,5) matched(7,6) matched(6,7) matched(5,8) matched(4,1) matched(9,10) matched(12,11) matched(11,12) matched(10,9) matched(16,14) matched(17,15) matched(14,16) matched(15,17) matched(19,18) matched(18,19) matched(13,20) matched(20,13) matched(24,22) matched(25,23) matched(22,24) matched(23,25) matched(27,26) matched(26,27) matched(21,28) matched(28,21) matched(31,30) matched(30,31) matched(29,32) matched(32,29) matched(36,34) matched(37,35) matched(34,36) matched(35,37) matched(39,38) matched(38,39) matched(33,40) matched(40,33) matched(44,42) matched(45,43) matched(42,44) matched(43,45) matched(47,46) matched(46,47) matched(41,48) matched(48,41) matched(51,50) matched(50,51) matched(49,52) matched(52,49) matched(56,54) matched(57,55) matched(54,56) matched(55,57) matched(59,58) matched(58,59) matched(53,60) matched(60,53)
Optimization: 645
Answer: 20
matched(6,2) matched(7,3) matched(1,4) matched(8,5) matched(2,6) matched(3,7) matched(5,8) matched(4,1) matched(11,10) matched(10,11) matched(9,12) matched(12,9) matched(18,14) matched(19,15) matched(17,16) matched(16,17) matched(14,18) matched(15,19) matched(13,20) matched(20,13) matched(24,22) matched(25,23) matched(22,24) matched(23,25) matched(27,26) matched(26,27) matched(21,28) matched(28,21) matched(29,30) matched(32,31) matched(31,32) matched(30,29) matched(36,34) matched(37,35) matched(34,36) matched(35,37) matched(39,38) matched(38,39) matched(33,40) matched(40,33) matched(44,42) matched(45,43) matched(42,44) matched(43,45) matched(47,46) matched(46,47) matched(41,48) matched(48,41) matched(51,50) matched(50,51) matched(49,52) matched(52,49) matched(56,54) matched(57,55) matched(54,56) matched(55,57) matched(59,58) matched(58,59) matched(53,60) matched(60,53)
Optimization: 644
Answer: 21
matched(3,2) matched(2,3) matched(1,4) matched(8,5) matched(7,6) matched(6,7) matched(5,8) matched(4,1) matched(11,10) matched(10,11) matched(9,12) matched(12,9) matched(18,14) matched(19,15) matched(17,16) matched(16,17) matched(14,18) matched(15,19) matched(13,20) matched(20,13) matched(24,22) matched(25,23) matched(22,24) matched(23,25) matched(27,26) matched(26,27) matched(21,28) matched(28,21) matched(29,30) matched(32,31) matched(31,32) matched(30,29) matched(36,34) matched(37,35) matched(34,36) matched(35,37) matched(39,38) matched(38,39) matched(33,40) matched(40,33) matched(44,42) matched(45,43) matched(42,44) matched(43,45) matched(47,46) matched(46,47) matched(41,48) matched(48,41) matched(51,50) matched(50,51) matched(49,52) matched(52,49) matched(56,54) matched(57,55) matched(54,56) matched(55,57) matched(59,58) matched(58,59) matched(53,60) matched(60,53)
Optimization: 643
Answer: 22
matched(3,2) matched(2,3) matched(1,4) matched(8,5) matched(7,6) matched(6,7) matched(5,8) matched(4,1) matched(9,10) matched(12,11) matched(11,12) matched(10,9) matched(15,14) matched(14,15) matched(17,16) matched(16,17) matched(19,18) matched(18,19) matched(13,20) matched(20,13) matched(24,22) matched(25,23) matched(22,24) matched(23,25) matched(27,26) matched(26,27) matched(21,28) matched(28,21) matched(31,30) matched(30,31) matched(29,32) matched(32,29) matched(36,34) matched(37,35) matched(34,36) matched(35,37) matched(39,38) matched(38,39) matched(33,40) matched(40,33) matched(44,42) matched(45,43) matched(42,44) matched(43,45) matched(47,46) matched(46,47) matched(41,48) matched(48,41) matched(51,50) matched(50,51) matched(49,52) matched(52,49) matched(56,54) matched(57,55) matched(54,56) matched(55,57) matched(59,58) matched(58,59) matched(53,60) matched(60,53)
Optimization: 642
Answer: 23
matched(3,2) matched(2,3) matched(1,4) matched(8,5) matched(7,6) matched(6,7) matched(5,8) matched(4,1) matched(9,10) matched(12,11) matched(11,12) matched(10,9) matched(18,14) matched(19,15) matched(17,16) matched(16,17) matched(14,18) matched(15,19) matched(13,20) matched(20,13) matched(24,22) matched(25,23) matched(22,24) matched(23,25) matched(27,26) matched(26,27) matched(21,28) matched(28,21) matched(31,30) matched(30,31) matched(29,32) matched(32,29) matched(36,34) matched(37,35) matched(34,36) matched(35,37) matched(39,38) matched(38,39) matched(33,40) matched(40,33) matched(44,42) matched(45,43) matched(42,44) matched(43,45) matched(47,46) matched(46,47) matched(41,48) matched(48,41) matched(51,50) matched(50,51) matched(49,52) matched(52,49) matched(58,54) matched(59,55) matched(57,56) matched(56,57) matched(54,58) matched(55,59) matched(53,60) matched(60,53)
Optimization: 640
Answer: 24
matched(3,2) matched(2,3) matched(1,4) matched(8,5) matched(7,6) matched(6,7) matched(5,8) matched(4,1) matched(9,10) matched(12,11) matched(11,12) matched(10,9) matched(18,14) matched(19,15) matched(17,16) matched(16,17) matched(14,18) matched(15,19) matched(13,20) matched(20,13) matched(24,22) matched(25,23) matched(22,24) matched(23,25) matched(27,26) matched(26,27) matched(21,28) matched(28,21) matched(31,30) matched(30,31) matched(29,32) matched(32,29) matched(36,34) matched(37,35) matched(34,36) matched(35,37) matched(39,38) matched(38,39) matched(33,40) matched(40,33) matched(44,42) matched(45,43) matched(42,44) matched(43,45) matched(47,46) matched(46,47) matched(41,48) matched(48,41) matched(49,50) matched(52,51) matched(51,52) matched(50,49) matched(56,54) matched(57,55) matched(54,56) matched(55,57) matched(59,58) matched(58,59) matched(53,60) matched(60,53)
Optimization: 639
Answer: 25
matched(3,2) matched(2,3) matched(1,4) matched(8,5) matched(7,6) matched(6,7) matched(5,8) matched(4,1) matched(9,10) matched(12,11) matched(11,12) matched(10,9) matched(18,14) matched(19,15) matched(17,16) matched(16,17) matched(14,18) matched(15,19) matched(13,20) matched(20,13) matched(24,22) matched(25,23) matched(22,24) matched(23,25) matched(27,26) matched(26,27) matched(21,28) matched(28,21) matched(31,30) matched(30,31) matched(29,32) matched(32,29) matched(36,34) matched(37,35) matched(34,36) matched(35,37) matched(39,38) matched(38,39) matched(33,40) matched(40,33) matched(44,42) matched(45,43) matched(42,44) matched(43,45) matched(47,46) matched(46,47) matched(41,48) matched(48,41) matched(51,50) matched(50,51) matched(49,52) matched(52,49) matched(56,54) matched(57,55) matched(54,56) matched(55,57) matched(59,58) matched(58,59) matched(53,60) matched(60,53)
Optimization: 638
OPTIMUM FOUND

Models       : 25
  Optimum    : yes
Optimization : 638
Calls        : 1
Time         : 12.509s (Solving: 12.12s 1st Model: 0.00s Unsat: 7.76s)
CPU Time     : 12.464s
